10 18 15 13 7 6 0 19 16 4 11 5 1 2 8 3 12 17 9 14
0 7 19 13 18 6 10 16 11 4 8 2 1 12 5 9 3 15 17 14
0 10 18 6 13 7 4 16 11 1 8 2 19 15 3 12 9 5 17 14
6 0 13 7 16 18 10 4 2 3 11 8 9 12 15 19 5 14 1 17
7 13 6 19 18 11 4 10 0 2 16 3 1 9 12 5 8 15 17 14
6 7 10 0 16 11 4 18 2 12 3 19 8 5 1 15 9 13 17 14
7 13 6 18 16 0 4 11 10 3 2 19 5 15 9 8 17 1 12 14
13 7 18 6 16 10 11 0 2 4 8 19 5 9 12 17 15 14 3 1
13 0 7 4 18 6 2 16 11 10 12 5 19 15 3 8 1 14 17 9
7 16 6 4 18 10 0 19 2 11 5 3 1 9 14 17 8 15 12 13